Y23 Al40 O96  Ce                        
   1.00000000000000     
    11.9865900405452752    0.0000000000000000    0.0000000000000000
     0.0000000000000000   11.9865900405452752    0.0000000000000000
     0.0000000000000000    0.0000000000000000   11.9865900405452752
   Y    Al   O    Ce
    23    40    96     1
Direct
  0.2500095803021371  0.3743909178279080  0.5000065609335176
  0.7500551872500220  0.8756269311813611  0.0001935345625789
  0.0001466001067564  0.2496312699267950  0.6251272626675157
  0.5000720851372811  0.7500596450309366  0.1248773695146188
  0.4998437866714417  0.2496197227669832  0.3748984694835240
 -0.0000230636592143  0.7500922805809082  0.8752401615669161
  0.6248758069612951  0.0003449844652063  0.2498832082101345
  0.1251527381716728  0.4999331104431385  0.7499486925771011
  0.3748211233694860  0.4999278792099732  0.2500862287845581
  0.8751265659747323  0.0003609425085392  0.7501995486502167
  0.2499950963258734  0.6249940993332223  0.0000171095287094
  0.7500092587432369  0.1250149751949851  0.4999854914975054
  0.2499875270914619  0.1249983895185292  0.0000111804061884
  0.4997569034808457  0.2495268584790075  0.8752219400841346
  0.0014864779732872  0.7508126850343768  0.3746114682093935
  0.0002337835307267  0.2495380397994043  0.1247948865376497
  0.4986095381147835  0.7509991379058263  0.6256200897874246
  0.8755359508947438  0.4990221867718324  0.2487468978802910
  0.3747703483177826  0.0004871905483263  0.7502463743889802
  0.1251989867236214  0.0004491019236936  0.2497730078636315
  0.6245409084892967  0.4990977098422678  0.7516192497518708
  0.2499964877479915  0.8753543669702482  0.5000276003037851
  0.7500110966010914  0.3746315471772151  0.0000186425704992
  0.7500143201490280  0.1248316793276781 -0.0000023452687849
  0.2500299452392162  0.6247591600657353  0.5000390595582477
  0.7501678472726122  0.3719645998144564  0.5000020542633195
  0.2499946150998990  0.8750846960361145  0.0000115632623212
  0.1251900043023735  0.4998847118420534  0.2496746113850767
  0.6247972177956632 -0.0002105762565521  0.7502505298251095
  0.4983249900481757  0.7506686217471086  0.3748135430966660
  0.0001031009021325  0.2499183988066608  0.8750430196151374
  0.3748541061386598  0.4998902740073318  0.7503367938272270
  0.8752318402540372 -0.0002173298265428  0.2498758349503145
  0.4998859345922962  0.2499339349498866  0.1249549297565531
  0.0015260067377407  0.7505775760486985  0.6253133217966487
  0.2500329253152094  0.3749117878522746  0.0000175265511391
  0.7499423788687201  0.8780758907382270  0.5002950312877416
  0.0002921396605791  0.7501170981397273  0.1248943138286862
  0.4998353652614505  0.2501746041490502  0.6252405144438700
  0.0001973767531657  0.2502208481569454  0.3747985976868460
  0.4995683714587160  0.7501527521506847  0.8752486318329354
  0.1250299540488399  0.0000621991800133  0.7501115450680957
  0.6247290938885558  0.4992733519234936  0.2483779371798920
  0.3749362791324204  0.0000743840196526  0.2499014446088569
  0.8751914894124895  0.4994513875260225  0.7516813844976260
  0.2499795239341448  0.1251695147190112  0.4999786066099706
  0.7499996515521297  0.6252388023657978  0.0001126560266654
  0.0003832766231233  0.4998728940108170  0.0000180404345515
  0.4995906816533522  0.0007748621123156  0.5001935750597840
  0.2500217978877147  0.7501338247233018  0.2496294176657382
  0.7498328114331476  0.2492136645152627  0.7504123233361892
  0.2499527699707131  0.2500061223509683  0.2499569508320117
  0.7494076396166089  0.7514679387146250  0.7521727951735747
  0.2500403960365912  0.2500072594792255  0.7500506673875693
  0.7505052277577036  0.7513943283601524  0.2482012578021708
  0.0000675971845900  0.0000100781383481  0.0000712485112107
  0.4980763807863229  0.4985736960561394  0.5005907702052563
  0.4999572057767593 -0.0000187789764376 -0.0000190404918575
  0.0019487411029244  0.4985800329598615  0.4995053566001054
  0.0003957559071806  0.0007547378060059  0.4998475635298510
  0.4996136918982501  0.4998762947870064  0.0000843873175047
  0.7501583582356403  0.2492074906954570  0.2496117506639837
  0.2499296649289221  0.7501324770023141  0.7503883898675329
  0.8016960143112990  0.2785408440363867  0.6017086687886952
  0.3014266539633143  0.7802408705008788  0.1009125125089910
  0.6009976946305503  0.8010660648714731  0.2808174676985004
  0.1010039567089940  0.3015045750771678  0.7801716225768387
  0.2198216468230881  0.3987781839198944  0.3010890636922829
  0.7199495325152446  0.8998537949578977  0.8034746461793996
  0.1985772527538729  0.7802419022150158  0.8991630346261309
  0.6983507490367065  0.2786673699100359  0.3983441748159004
  0.3508922095523767  0.4697471315614732  0.0514672272774699
  0.8516857139540973  0.9714632604170897  0.5517048287883463
  0.6009367878412357  0.1982168140988813  0.2195927257551597
  0.1015442920107139  0.6987445373530168  0.7205383267045922
  0.6486106201111076  0.0304846454672113  0.0513959731245756
  0.1498495562419804  0.5292323721461458  0.5519452734918832
  0.2802288338763981  0.6011118033262552  0.8015912354644332
  0.7802941655778824  0.1005921271292259  0.3012657099332233
  0.3502384986557331  0.5293421913497396  0.4481295742162709
  0.8514252758863512  0.0305236335516925  0.9487452363113325
  0.0515768934098911  0.6488966011013072  0.0303025704674920
  0.5512678435951055  0.1494085193766790  0.5302832322501083
  0.4695645859829407  0.0517645195215511  0.3509277583152596
  0.9705267621427125  0.5512892838733453  0.8516432959627149
  0.4698552798616387  0.9484766514340780  0.1490229311917333
  0.9691899124449452  0.4488680631494472  0.6490362326591522
  0.9487343357663652  0.1494311461202834  0.4696538890922548
  0.4483770357155241  0.6488918927450720  0.9698678716196714
  0.0304356622545191  0.0517811089166762  0.6490508063127522
  0.5294865411308168  0.5512239783747918  0.1484933180296715
  0.4468510948573466  0.3502431473673578  0.5300821417535496
  0.9489506515374855  0.8512589517248180  0.0302905486088957
  0.5308287855457869  0.4489056208814200  0.3510649317263014
  0.0301937463720186  0.9485078238826037  0.8510363649459691
  0.0532622481649104  0.3502240956240444  0.4699951625212793
  0.5510567983863657  0.8512414155200060  0.9699089915478942
  0.3013338247610947  0.2195098031971671  0.3986055097529336
  0.8019340410853067  0.7207952378331696  0.9000065991007176
  0.1986777585921300  0.2195174142685568  0.6013843551859825
  0.6980356108978533  0.7206782667515398  0.1003075322027500
  0.1489836320857146  0.9699348203195922  0.0514224325974458
  0.6463034240988124  0.4628091112434101  0.5533765679531809
  0.8990758767554475  0.1981877129854726  0.7804534891669277
  0.3984213628091866  0.6987236628564827  0.2795472224222793
  0.7800175017763502  0.8997206448311246  0.1969090696688545
  0.2802126365341928  0.3987563640112529  0.6989300772776608
  0.2198197275682586  0.6011080337579043  0.1984289725881342
  0.7196692206784381  0.1005201991591487  0.6987035332611388
  0.1491367444045581  0.4697648749333378  0.9486358220236760
  0.6483159914709936  0.9713730601778042  0.4484043520312190
  0.6985141703855936  0.2195017812288906  0.8991285615814457
  0.1988534051063156  0.7199078431697032  0.3989360780510476
  0.8993643439899422  0.6991000997370441  0.2198601390557636
  0.3987658417163897  0.1985320608738428  0.7199824803245977
  0.2802824304292719  0.1011454906784700  0.1984105076312852
  0.7795707504754674  0.6017113373727877  0.7047250185883214
  0.3011699471983756  0.7199198541529482  0.6010910825243424
  0.8014727232107127  0.2195602743026132  0.1009119873481139
  0.1490980485442292  0.0304505066293093  0.4485055595281908
  0.6489237503255473  0.5300956966104299  0.9488941437490019
  0.8992278069844498  0.3005027536391441  0.2791755375734949
  0.3984629783403079  0.8016254772722015  0.7805379651129245
  0.8541590005863952  0.4626885699851570  0.4466175760652119
  0.3510250908917750  0.9699319924538286  0.9486271953263631
  0.2198130617307484  0.8990260162490491  0.6986098264039519
  0.7197819368301338  0.3980590092396852  0.1983360411178393
  0.3508814279216427  0.0304500864799002  0.5514413314434445
  0.8510771184216479  0.5300632868772681  0.0512116021138107
  0.2801848773718176  0.8989924586609570  0.3013950235414904
  0.7801720104473252  0.3980612316200539  0.8017561445957986
  0.7203200294652107  0.6013843301201035  0.2956109730289491
  0.2196834802971954  0.1011549301591502  0.8016056051386463
  0.1012204857865719  0.1985406501864176  0.2800070122067048
  0.6005335683081698  0.6991171941536038  0.7804245660543297
  0.6007648098793273  0.3005253890312307  0.7208185567863213
  0.1015289043767749  0.8015844171274648  0.2195813094455307
  0.3013985466885701  0.2800687348954126  0.8989887866996137
  0.8032200016161833  0.7871255021970522  0.3963309135284781
  0.1986123085056392  0.2800661825543996  0.1010487932522337
  0.6967189244292716  0.7874564554781276  0.6043394637261217
  0.4483977058810694  0.1488255536817698  0.0303018827871571
  0.9544636965150889  0.6483267443944686  0.5297135544539145
  0.9699639231805781  0.0514545420697282  0.1488323513004549
  0.4697929456275715  0.5509028242641275  0.6494134766920360
  0.0516133833450419  0.1488769037702811  0.9697151130163960
  0.5455936926029612  0.6485679767318229  0.4703964429277723
  0.4695119193233634  0.4484131110584947  0.8515389171251964
  0.9708157402242105  0.9494021453061116  0.3507779732477462
  0.5513819113317574  0.3509876655606197  0.0302075019431722
  0.0516829818028622  0.8518530156148720  0.5302266849044436
  0.0303439149072221  0.5509881700803696  0.3506299223727448
  0.5299789930489781  0.0514763630033512  0.8512577083580416
  0.0304507892919281  0.4483885385661382  0.1485451280417459
  0.5291684774115748  0.9494854816549042  0.6492687072645288
  0.4483023282688487  0.8519088599557838  0.4698574178841319
  0.9486264895174079  0.3509896266367396  0.9698515622238405
  0.3990021640487392  0.3015239736750100  0.2198570811691501
  0.8990142459258567  0.8011594286024235  0.7193557479536608
  0.7495186834081142  0.6250460517482347  0.4996686252527856
 
  0.00000000E+00  0.00000000E+00  0.00000000E+00
  0.00000000E+00  0.00000000E+00  0.00000000E+00
  0.00000000E+00  0.00000000E+00  0.00000000E+00
  0.00000000E+00  0.00000000E+00  0.00000000E+00
  0.00000000E+00  0.00000000E+00  0.00000000E+00
  0.00000000E+00  0.00000000E+00  0.00000000E+00
  0.00000000E+00  0.00000000E+00  0.00000000E+00
  0.00000000E+00  0.00000000E+00  0.00000000E+00
  0.00000000E+00  0.00000000E+00  0.00000000E+00
  0.00000000E+00  0.00000000E+00  0.00000000E+00
  0.00000000E+00  0.00000000E+00  0.00000000E+00
  0.00000000E+00  0.00000000E+00  0.00000000E+00
  0.00000000E+00  0.00000000E+00  0.00000000E+00
  0.00000000E+00  0.00000000E+00  0.00000000E+00
  0.00000000E+00  0.00000000E+00  0.00000000E+00
  0.00000000E+00  0.00000000E+00  0.00000000E+00
  0.00000000E+00  0.00000000E+00  0.00000000E+00
  0.00000000E+00  0.00000000E+00  0.00000000E+00
  0.00000000E+00  0.00000000E+00  0.00000000E+00
  0.00000000E+00  0.00000000E+00  0.00000000E+00
  0.00000000E+00  0.00000000E+00  0.00000000E+00
  0.00000000E+00  0.00000000E+00  0.00000000E+00
  0.00000000E+00  0.00000000E+00  0.00000000E+00
  0.00000000E+00  0.00000000E+00  0.00000000E+00
  0.00000000E+00  0.00000000E+00  0.00000000E+00
  0.00000000E+00  0.00000000E+00  0.00000000E+00
  0.00000000E+00  0.00000000E+00  0.00000000E+00
  0.00000000E+00  0.00000000E+00  0.00000000E+00
  0.00000000E+00  0.00000000E+00  0.00000000E+00
  0.00000000E+00  0.00000000E+00  0.00000000E+00
  0.00000000E+00  0.00000000E+00  0.00000000E+00
  0.00000000E+00  0.00000000E+00  0.00000000E+00
  0.00000000E+00  0.00000000E+00  0.00000000E+00
  0.00000000E+00  0.00000000E+00  0.00000000E+00
  0.00000000E+00  0.00000000E+00  0.00000000E+00
  0.00000000E+00  0.00000000E+00  0.00000000E+00
  0.00000000E+00  0.00000000E+00  0.00000000E+00
  0.00000000E+00  0.00000000E+00  0.00000000E+00
  0.00000000E+00  0.00000000E+00  0.00000000E+00
  0.00000000E+00  0.00000000E+00  0.00000000E+00
  0.00000000E+00  0.00000000E+00  0.00000000E+00
  0.00000000E+00  0.00000000E+00  0.00000000E+00
  0.00000000E+00  0.00000000E+00  0.00000000E+00
  0.00000000E+00  0.00000000E+00  0.00000000E+00
  0.00000000E+00  0.00000000E+00  0.00000000E+00
  0.00000000E+00  0.00000000E+00  0.00000000E+00
  0.00000000E+00  0.00000000E+00  0.00000000E+00
  0.00000000E+00  0.00000000E+00  0.00000000E+00
  0.00000000E+00  0.00000000E+00  0.00000000E+00
  0.00000000E+00  0.00000000E+00  0.00000000E+00
  0.00000000E+00  0.00000000E+00  0.00000000E+00
  0.00000000E+00  0.00000000E+00  0.00000000E+00
  0.00000000E+00  0.00000000E+00  0.00000000E+00
  0.00000000E+00  0.00000000E+00  0.00000000E+00
  0.00000000E+00  0.00000000E+00  0.00000000E+00
  0.00000000E+00  0.00000000E+00  0.00000000E+00
  0.00000000E+00  0.00000000E+00  0.00000000E+00
  0.00000000E+00  0.00000000E+00  0.00000000E+00
  0.00000000E+00  0.00000000E+00  0.00000000E+00
  0.00000000E+00  0.00000000E+00  0.00000000E+00
  0.00000000E+00  0.00000000E+00  0.00000000E+00
  0.00000000E+00  0.00000000E+00  0.00000000E+00
  0.00000000E+00  0.00000000E+00  0.00000000E+00
  0.00000000E+00  0.00000000E+00  0.00000000E+00
  0.00000000E+00  0.00000000E+00  0.00000000E+00
  0.00000000E+00  0.00000000E+00  0.00000000E+00
  0.00000000E+00  0.00000000E+00  0.00000000E+00
  0.00000000E+00  0.00000000E+00  0.00000000E+00
  0.00000000E+00  0.00000000E+00  0.00000000E+00
  0.00000000E+00  0.00000000E+00  0.00000000E+00
  0.00000000E+00  0.00000000E+00  0.00000000E+00
  0.00000000E+00  0.00000000E+00  0.00000000E+00
  0.00000000E+00  0.00000000E+00  0.00000000E+00
  0.00000000E+00  0.00000000E+00  0.00000000E+00
  0.00000000E+00  0.00000000E+00  0.00000000E+00
  0.00000000E+00  0.00000000E+00  0.00000000E+00
  0.00000000E+00  0.00000000E+00  0.00000000E+00
  0.00000000E+00  0.00000000E+00  0.00000000E+00
  0.00000000E+00  0.00000000E+00  0.00000000E+00
  0.00000000E+00  0.00000000E+00  0.00000000E+00
  0.00000000E+00  0.00000000E+00  0.00000000E+00
  0.00000000E+00  0.00000000E+00  0.00000000E+00
  0.00000000E+00  0.00000000E+00  0.00000000E+00
  0.00000000E+00  0.00000000E+00  0.00000000E+00
  0.00000000E+00  0.00000000E+00  0.00000000E+00
  0.00000000E+00  0.00000000E+00  0.00000000E+00
  0.00000000E+00  0.00000000E+00  0.00000000E+00
  0.00000000E+00  0.00000000E+00  0.00000000E+00
  0.00000000E+00  0.00000000E+00  0.00000000E+00
  0.00000000E+00  0.00000000E+00  0.00000000E+00
  0.00000000E+00  0.00000000E+00  0.00000000E+00
  0.00000000E+00  0.00000000E+00  0.00000000E+00
  0.00000000E+00  0.00000000E+00  0.00000000E+00
  0.00000000E+00  0.00000000E+00  0.00000000E+00
  0.00000000E+00  0.00000000E+00  0.00000000E+00
  0.00000000E+00  0.00000000E+00  0.00000000E+00
  0.00000000E+00  0.00000000E+00  0.00000000E+00
  0.00000000E+00  0.00000000E+00  0.00000000E+00
  0.00000000E+00  0.00000000E+00  0.00000000E+00
  0.00000000E+00  0.00000000E+00  0.00000000E+00
  0.00000000E+00  0.00000000E+00  0.00000000E+00
  0.00000000E+00  0.00000000E+00  0.00000000E+00
  0.00000000E+00  0.00000000E+00  0.00000000E+00
  0.00000000E+00  0.00000000E+00  0.00000000E+00
  0.00000000E+00  0.00000000E+00  0.00000000E+00
  0.00000000E+00  0.00000000E+00  0.00000000E+00
  0.00000000E+00  0.00000000E+00  0.00000000E+00
  0.00000000E+00  0.00000000E+00  0.00000000E+00
  0.00000000E+00  0.00000000E+00  0.00000000E+00
  0.00000000E+00  0.00000000E+00  0.00000000E+00
  0.00000000E+00  0.00000000E+00  0.00000000E+00
  0.00000000E+00  0.00000000E+00  0.00000000E+00
  0.00000000E+00  0.00000000E+00  0.00000000E+00
  0.00000000E+00  0.00000000E+00  0.00000000E+00
  0.00000000E+00  0.00000000E+00  0.00000000E+00
  0.00000000E+00  0.00000000E+00  0.00000000E+00
  0.00000000E+00  0.00000000E+00  0.00000000E+00
  0.00000000E+00  0.00000000E+00  0.00000000E+00
  0.00000000E+00  0.00000000E+00  0.00000000E+00
  0.00000000E+00  0.00000000E+00  0.00000000E+00
  0.00000000E+00  0.00000000E+00  0.00000000E+00
  0.00000000E+00  0.00000000E+00  0.00000000E+00
  0.00000000E+00  0.00000000E+00  0.00000000E+00
  0.00000000E+00  0.00000000E+00  0.00000000E+00
  0.00000000E+00  0.00000000E+00  0.00000000E+00
  0.00000000E+00  0.00000000E+00  0.00000000E+00
  0.00000000E+00  0.00000000E+00  0.00000000E+00
  0.00000000E+00  0.00000000E+00  0.00000000E+00
  0.00000000E+00  0.00000000E+00  0.00000000E+00
  0.00000000E+00  0.00000000E+00  0.00000000E+00
  0.00000000E+00  0.00000000E+00  0.00000000E+00
  0.00000000E+00  0.00000000E+00  0.00000000E+00
  0.00000000E+00  0.00000000E+00  0.00000000E+00
  0.00000000E+00  0.00000000E+00  0.00000000E+00
  0.00000000E+00  0.00000000E+00  0.00000000E+00
  0.00000000E+00  0.00000000E+00  0.00000000E+00
  0.00000000E+00  0.00000000E+00  0.00000000E+00
  0.00000000E+00  0.00000000E+00  0.00000000E+00
  0.00000000E+00  0.00000000E+00  0.00000000E+00
  0.00000000E+00  0.00000000E+00  0.00000000E+00
  0.00000000E+00  0.00000000E+00  0.00000000E+00
  0.00000000E+00  0.00000000E+00  0.00000000E+00
  0.00000000E+00  0.00000000E+00  0.00000000E+00
  0.00000000E+00  0.00000000E+00  0.00000000E+00
  0.00000000E+00  0.00000000E+00  0.00000000E+00
  0.00000000E+00  0.00000000E+00  0.00000000E+00
  0.00000000E+00  0.00000000E+00  0.00000000E+00
  0.00000000E+00  0.00000000E+00  0.00000000E+00
  0.00000000E+00  0.00000000E+00  0.00000000E+00
  0.00000000E+00  0.00000000E+00  0.00000000E+00
  0.00000000E+00  0.00000000E+00  0.00000000E+00
  0.00000000E+00  0.00000000E+00  0.00000000E+00
  0.00000000E+00  0.00000000E+00  0.00000000E+00
  0.00000000E+00  0.00000000E+00  0.00000000E+00
  0.00000000E+00  0.00000000E+00  0.00000000E+00
  0.00000000E+00  0.00000000E+00  0.00000000E+00
  0.00000000E+00  0.00000000E+00  0.00000000E+00
  0.00000000E+00  0.00000000E+00  0.00000000E+00
  0.00000000E+00  0.00000000E+00  0.00000000E+00
  0.00000000E+00  0.00000000E+00  0.00000000E+00
