Y23 Al40 O96  Ce                        
   1.00000000000000     
    11.9865900405452752    0.0000000000000000    0.0000000000000000
     0.0000000000000000   11.9865900405452752    0.0000000000000000
     0.0000000000000000    0.0000000000000000   11.9865900405452752
   Y    Al   O    Ce
    23    40    96     1
Direct
  0.2499985453888632  0.3744452305485504  0.5000423833824259
  0.7499998418939695  0.8755548014264493  0.0000428521657225
 -0.0000465354347725  0.2497790921947640  0.6249663077514823
  0.5001434333878162  0.7500693974354464  0.1250449541346274
  0.5000449815441195  0.2497784350653918  0.3751209324561340
 -0.0001425135911985  0.7500676015078865  0.8750453047130006
  0.6250157162615024  0.0003465579250522  0.2500968626712700
  0.1249666726973719  0.4999612018026658  0.7497768055403261
  0.3750343410210161  0.4999607158839235  0.2503115984633478
  0.8749853768366733  0.0003463338695682  0.7499877637478968
  0.2499998424037218  0.6250077093031717  0.0000458261691267
  0.7500003869936592  0.1251685751591681  0.5000438880921444
  0.2500001269461856  0.1250009239170035  0.0000425777993366
  0.4996361842665494  0.2494843897264593  0.8754407039502375
  0.0015947241623676  0.7509204661522096  0.3744785785967977
  0.0003624973182177  0.2494839643785083  0.1246432688160464
  0.4984037656870126  0.7509209155165381  0.6256111560666833
  0.8758564262918622  0.4988208189302490  0.2485453883877121
  0.3746458101777828  0.0004819256151879  0.7503545585711984
  0.1253522276674648  0.0004823167916885  0.2497318221163155
  0.6241444586370994  0.4988210156859252  0.7515412769351891
  0.2499981428768532  0.8754068877136405  0.5000466991888242
  0.7500008324085772  0.3745963723147014  0.0000421787773319
  0.7499995341627541  0.1248197696717701  0.0000428125497026
  0.2500000275701403  0.6247571051934454  0.5000450603838476
  0.7500008137055661  0.3725583655042378  0.5000432538094097
  0.2499999166839544  0.8750988860962250  0.0000449485232634
  0.1254065240463614  0.4998221379266707  0.2494210262717728
  0.6246313342328554  0.9998642100659064  0.7503589811616737
  0.4985369442956336  0.7506301380643666  0.3750055526781055
 -0.0000606005842177  0.2498345866279033  0.8749018037387715
  0.3745946089694577  0.4998220959252899  0.7506673547077986
  0.8753670305096444  0.9998658960490788  0.2497290957159220
  0.5000611326942823  0.2498352080000847  0.1251833124116882
  0.0014623809299777  0.7506277907492490  0.6250826892252609
  0.2500004069765375  0.3749366751308793  0.0000427590384085
  0.7500003334972770  0.8778645624882222  0.5000453863022138
  0.0004931985185184  0.7501293765452872  0.1247535732524534
  0.4996374337194385  0.2501918519262955  0.6254264601992959
  0.0003634522297756  0.2501936482859334  0.3746573644423097
  0.4995068656987412  0.7501286196739640  0.8753369478288736
  0.1248962168135684  0.0001650093721176  0.7500040342588177
  0.6250118660907920  0.4993531701369933  0.2488372208172165
  0.3751033337892436  0.0001645303205229  0.2500846415341844
  0.8749875456205657  0.4993541826353066  0.7512495782193690
  0.2500002448791848  0.1252039984993392  0.5000425693992775
  0.7500000509282597  0.6251467370559505  0.0000443565956213
  0.0003104095906373  0.4998227436929701 -0.0002635282063776
  0.4996218181754592  0.0007850050197776  0.5003675302331034
  0.2502260118184623  0.7501722578335286  0.2496924579933584
  0.7496587069234644  0.2492802992330059  0.7503751043466450
  0.2501776488287469  0.2499818979833728  0.2499101412194693
  0.7492627793154100  0.7514903060240545  0.7519210085921971
  0.2498237996041926  0.2499829234731329  0.7501739586141070
  0.7507372192551989  0.7514924753419139  0.2481662842820304
  0.0001130374217687 -0.0000098782973873 -0.0001164612696959
  0.4982647292103712  0.4986808419302712  0.5008356446749767
  0.4998854473163185 -0.0000089443391446  0.0002047106258058
  0.0017347088519941  0.4986813703891808  0.4992525577724256
  0.0003778571137548  0.0007853648123751  0.4997199776944839
  0.4996899756018234  0.4998235837062647  0.0003523382563708
  0.7503417360241443  0.2492808087774078  0.2497105685358315
  0.2497741619192262  0.7501716446081987  0.7503984361509285
  0.8014421483786939  0.2788424896873630  0.6017188807562455
  0.3016058777575543  0.7803042790426670  0.1009121259578654
  0.6012036457008313  0.8010203985688232  0.2809888863199367
  0.1007705518966466  0.3015479260797166  0.7800410810380470
  0.2199853019576409  0.3987619690487775  0.3009102114901872
  0.7198787135340641  0.8997448323795096  0.8031945384187086
  0.1983945626598813  0.7803016636313135  0.8991798289754509
  0.6985598758931828  0.2788436555969670  0.3983684802740148
  0.3509063693384248  0.4697268089212911  0.0516684388226396
  0.8516878455456781  0.9713288432916977  0.5515177758291484
  0.6011350927668638  0.1981547433036570  0.2197618104415108
  0.1014244274232532  0.6988309526900248  0.7204288135837674
  0.6486643123643868  0.0303679400688751  0.0513903035848824
  0.1497838581412762  0.5292666617068205  0.5519169278916122
  0.2799823508583210  0.6011380917068692  0.8017100493077636
  0.7804629873680131  0.1005875448770222  0.3013045650982939
  0.3502151049655455  0.5292669051729703  0.4481730356193206
  0.8513348303593518  0.0303673837144186  0.9486971791443611
  0.0515524590146053  0.6488537489198346  0.0300574785992175
  0.5512391640664497  0.1494633987902646  0.5305225742537987
  0.4696956711411330  0.0518886915716203  0.3511286842448658
  0.9701888396316228  0.5512541762323252  0.8513125195405316
  0.4700069806169512  0.9484279157563477  0.1492614185494008
  0.9690195898198579  0.4488183831205033  0.6487880315053381
  0.9487609154690742  0.1494657411012905  0.4695621687067263
  0.4484467702839923  0.6488542572594191  0.9700321214167946
  0.0303059275066754  0.0518910914824916  0.6489588989898597
  0.5298105436971459  0.5512551470010498  0.1487752021018637
  0.4467581681344542  0.3502795185630028  0.5302133958006826
  0.9490055202284727  0.8511819581105031  0.0301048965327444
  0.5309808514752368  0.4488191695041665  0.3513002840740377
  0.0299927162319399  0.9484281733291522  0.8508251509068144
  0.0532435813920494  0.3502806214639127  0.4698722579678413
  0.5509938828846236  0.8511820961801642  0.9699841075080936
  0.3013430745976491  0.2195911325714142  0.3986687951834293
  0.8017368683473337  0.7205548709510489  0.8996781120438661
  0.1986586591776820  0.2195923873820757  0.6014157398815450
  0.6982654401464126  0.7205556963613637  0.1004100111199459
  0.1489917470270919  0.9699548560667247  0.0513600140094927
  0.6459404441683140  0.4628426128158065  0.5538873223991276
  0.8988646072498715  0.1981525113217910  0.7803243579038425
  0.3985751705558905  0.6988304878343358  0.2796607490980630
  0.7801211647010601  0.8997458852146173  0.1968943024269053
  0.2800160448201027  0.3987631635686344  0.6991752336523896
  0.2200177002842639  0.6011393248572900  0.1983800101993443
  0.7195361921956656  0.1005854615107232  0.6987821930432068
  0.1490941719892178  0.4697285305053581  0.9484200027482494
  0.6483134878272235  0.9713277744353176  0.4485719063823321
  0.6984954406499491  0.2195512039438272  0.8991813543162693
  0.1988954486791865  0.7199044691457388  0.3989511428901242
  0.8995275543498701  0.6991157828767894  0.2197408774807062
  0.3986333929823599  0.1984587283506190  0.7201896874166765
  0.2804842783480966  0.1011587334976048  0.1983493653381709
  0.7793803134641692  0.6015193852886115  0.7035030950879090
  0.3011051650639756  0.7199035761351545  0.6011402361907804
  0.8015034807370656  0.2195512597407388  0.1009045147572681
  0.1491412531315769  0.0304829898299205  0.4484972871852074
  0.6488814368677249  0.5300900410711563  0.9489246701091678
  0.8995107904547400  0.3005158679943802  0.2789886106529276
  0.3983176961811919  0.8015859767725895  0.7806613269582363
  0.8540619913581117  0.4628419183893668  0.4461975029234559
  0.3510065503300224  0.9699562220203019  0.9487285842234777
  0.2196990238386776  0.8990826954510028  0.6985999529101522
  0.7200274741488255  0.3981866288019669  0.1984109628609551
  0.3508581047277590  0.0304826964592695  0.5515898843273761
  0.8511193392962909  0.5300896522502101  0.0511640513234105
  0.2803002160831926  0.8990842974631005  0.3014918900241125
  0.7799726076848241  0.3981867440965656  0.8016744906173505
  0.7206189008641014  0.6015179859937723  0.2965836545264327
  0.2195161746584665  0.1011593217875062  0.8017359573417197
  0.1013679294432581  0.1984585361290579  0.2798940319651376
  0.6004715306468693  0.6991136782392662  0.7803484572052136
  0.6004889767809621  0.3005155233240264  0.7210957698957503
  0.1016833593379804  0.8015869172438507  0.2194302076483190
  0.3013216422338416  0.2800342105096367  0.8990776137565547
  0.8033844902677980  0.7869278083808274  0.3962201409137709
  0.1986795549859520  0.2800311759830388  0.1010059007509242
  0.6966146154103455  0.7869289174720605  0.6038702840087015
  0.4483669993790350  0.1488076566672601  0.0305616918755247
  0.9545602698167424  0.6483578539058024  0.5295793365585056
  0.9701060857488729  0.0514997139297464  0.1486772879384324
  0.4695027125777366  0.5509122469290610  0.6497469516453963
  0.0516322160272433  0.1488072346519102  0.9695233983775210
  0.5454385741533596  0.6483594348881161  0.4705082149798206
  0.4693427821268017  0.4483431131785460  0.8517998555094768
  0.9709089528556394  0.9494028866650660  0.3506109441559300
  0.5514830179577825  0.3509284937190623  0.0304044548408856
  0.0516623174945630  0.8519902487144860  0.5301142666275519
  0.0304982802970138  0.5509138883413651  0.3503390344965296
  0.5298923240017273  0.0514990897017276  0.8514099426202230
  0.0306594661496778  0.4483423385725538  0.1482877138203055
  0.5290896563979433  0.9494017752359574  0.6494764842684402
  0.4483353019366534  0.8519898160000307  0.4699755835231662
  0.9485184769732304  0.3509288038343700  0.9696809220974372
  0.3992295471389560  0.3015485246937633  0.2200443605544932
  0.8987972493840711  0.8010199136240101  0.7191003724999876
  0.7499968961920490  0.6251252478357566  0.5000416035859142
 
  0.00000000E+00  0.00000000E+00  0.00000000E+00
  0.00000000E+00  0.00000000E+00  0.00000000E+00
  0.00000000E+00  0.00000000E+00  0.00000000E+00
  0.00000000E+00  0.00000000E+00  0.00000000E+00
  0.00000000E+00  0.00000000E+00  0.00000000E+00
  0.00000000E+00  0.00000000E+00  0.00000000E+00
  0.00000000E+00  0.00000000E+00  0.00000000E+00
  0.00000000E+00  0.00000000E+00  0.00000000E+00
  0.00000000E+00  0.00000000E+00  0.00000000E+00
  0.00000000E+00  0.00000000E+00  0.00000000E+00
  0.00000000E+00  0.00000000E+00  0.00000000E+00
  0.00000000E+00  0.00000000E+00  0.00000000E+00
  0.00000000E+00  0.00000000E+00  0.00000000E+00
  0.00000000E+00  0.00000000E+00  0.00000000E+00
  0.00000000E+00  0.00000000E+00  0.00000000E+00
  0.00000000E+00  0.00000000E+00  0.00000000E+00
  0.00000000E+00  0.00000000E+00  0.00000000E+00
  0.00000000E+00  0.00000000E+00  0.00000000E+00
  0.00000000E+00  0.00000000E+00  0.00000000E+00
  0.00000000E+00  0.00000000E+00  0.00000000E+00
  0.00000000E+00  0.00000000E+00  0.00000000E+00
  0.00000000E+00  0.00000000E+00  0.00000000E+00
  0.00000000E+00  0.00000000E+00  0.00000000E+00
  0.00000000E+00  0.00000000E+00  0.00000000E+00
  0.00000000E+00  0.00000000E+00  0.00000000E+00
  0.00000000E+00  0.00000000E+00  0.00000000E+00
  0.00000000E+00  0.00000000E+00  0.00000000E+00
  0.00000000E+00  0.00000000E+00  0.00000000E+00
  0.00000000E+00  0.00000000E+00  0.00000000E+00
  0.00000000E+00  0.00000000E+00  0.00000000E+00
  0.00000000E+00  0.00000000E+00  0.00000000E+00
  0.00000000E+00  0.00000000E+00  0.00000000E+00
  0.00000000E+00  0.00000000E+00  0.00000000E+00
  0.00000000E+00  0.00000000E+00  0.00000000E+00
  0.00000000E+00  0.00000000E+00  0.00000000E+00
  0.00000000E+00  0.00000000E+00  0.00000000E+00
  0.00000000E+00  0.00000000E+00  0.00000000E+00
  0.00000000E+00  0.00000000E+00  0.00000000E+00
  0.00000000E+00  0.00000000E+00  0.00000000E+00
  0.00000000E+00  0.00000000E+00  0.00000000E+00
  0.00000000E+00  0.00000000E+00  0.00000000E+00
  0.00000000E+00  0.00000000E+00  0.00000000E+00
  0.00000000E+00  0.00000000E+00  0.00000000E+00
  0.00000000E+00  0.00000000E+00  0.00000000E+00
  0.00000000E+00  0.00000000E+00  0.00000000E+00
  0.00000000E+00  0.00000000E+00  0.00000000E+00
  0.00000000E+00  0.00000000E+00  0.00000000E+00
  0.00000000E+00  0.00000000E+00  0.00000000E+00
  0.00000000E+00  0.00000000E+00  0.00000000E+00
  0.00000000E+00  0.00000000E+00  0.00000000E+00
  0.00000000E+00  0.00000000E+00  0.00000000E+00
  0.00000000E+00  0.00000000E+00  0.00000000E+00
  0.00000000E+00  0.00000000E+00  0.00000000E+00
  0.00000000E+00  0.00000000E+00  0.00000000E+00
  0.00000000E+00  0.00000000E+00  0.00000000E+00
  0.00000000E+00  0.00000000E+00  0.00000000E+00
  0.00000000E+00  0.00000000E+00  0.00000000E+00
  0.00000000E+00  0.00000000E+00  0.00000000E+00
  0.00000000E+00  0.00000000E+00  0.00000000E+00
  0.00000000E+00  0.00000000E+00  0.00000000E+00
  0.00000000E+00  0.00000000E+00  0.00000000E+00
  0.00000000E+00  0.00000000E+00  0.00000000E+00
  0.00000000E+00  0.00000000E+00  0.00000000E+00
  0.00000000E+00  0.00000000E+00  0.00000000E+00
  0.00000000E+00  0.00000000E+00  0.00000000E+00
  0.00000000E+00  0.00000000E+00  0.00000000E+00
  0.00000000E+00  0.00000000E+00  0.00000000E+00
  0.00000000E+00  0.00000000E+00  0.00000000E+00
  0.00000000E+00  0.00000000E+00  0.00000000E+00
  0.00000000E+00  0.00000000E+00  0.00000000E+00
  0.00000000E+00  0.00000000E+00  0.00000000E+00
  0.00000000E+00  0.00000000E+00  0.00000000E+00
  0.00000000E+00  0.00000000E+00  0.00000000E+00
  0.00000000E+00  0.00000000E+00  0.00000000E+00
  0.00000000E+00  0.00000000E+00  0.00000000E+00
  0.00000000E+00  0.00000000E+00  0.00000000E+00
  0.00000000E+00  0.00000000E+00  0.00000000E+00
  0.00000000E+00  0.00000000E+00  0.00000000E+00
  0.00000000E+00  0.00000000E+00  0.00000000E+00
  0.00000000E+00  0.00000000E+00  0.00000000E+00
  0.00000000E+00  0.00000000E+00  0.00000000E+00
  0.00000000E+00  0.00000000E+00  0.00000000E+00
  0.00000000E+00  0.00000000E+00  0.00000000E+00
  0.00000000E+00  0.00000000E+00  0.00000000E+00
  0.00000000E+00  0.00000000E+00  0.00000000E+00
  0.00000000E+00  0.00000000E+00  0.00000000E+00
  0.00000000E+00  0.00000000E+00  0.00000000E+00
  0.00000000E+00  0.00000000E+00  0.00000000E+00
  0.00000000E+00  0.00000000E+00  0.00000000E+00
  0.00000000E+00  0.00000000E+00  0.00000000E+00
  0.00000000E+00  0.00000000E+00  0.00000000E+00
  0.00000000E+00  0.00000000E+00  0.00000000E+00
  0.00000000E+00  0.00000000E+00  0.00000000E+00
  0.00000000E+00  0.00000000E+00  0.00000000E+00
  0.00000000E+00  0.00000000E+00  0.00000000E+00
  0.00000000E+00  0.00000000E+00  0.00000000E+00
  0.00000000E+00  0.00000000E+00  0.00000000E+00
  0.00000000E+00  0.00000000E+00  0.00000000E+00
  0.00000000E+00  0.00000000E+00  0.00000000E+00
  0.00000000E+00  0.00000000E+00  0.00000000E+00
  0.00000000E+00  0.00000000E+00  0.00000000E+00
  0.00000000E+00  0.00000000E+00  0.00000000E+00
  0.00000000E+00  0.00000000E+00  0.00000000E+00
  0.00000000E+00  0.00000000E+00  0.00000000E+00
  0.00000000E+00  0.00000000E+00  0.00000000E+00
  0.00000000E+00  0.00000000E+00  0.00000000E+00
  0.00000000E+00  0.00000000E+00  0.00000000E+00
  0.00000000E+00  0.00000000E+00  0.00000000E+00
  0.00000000E+00  0.00000000E+00  0.00000000E+00
  0.00000000E+00  0.00000000E+00  0.00000000E+00
  0.00000000E+00  0.00000000E+00  0.00000000E+00
  0.00000000E+00  0.00000000E+00  0.00000000E+00
  0.00000000E+00  0.00000000E+00  0.00000000E+00
  0.00000000E+00  0.00000000E+00  0.00000000E+00
  0.00000000E+00  0.00000000E+00  0.00000000E+00
  0.00000000E+00  0.00000000E+00  0.00000000E+00
  0.00000000E+00  0.00000000E+00  0.00000000E+00
  0.00000000E+00  0.00000000E+00  0.00000000E+00
  0.00000000E+00  0.00000000E+00  0.00000000E+00
  0.00000000E+00  0.00000000E+00  0.00000000E+00
  0.00000000E+00  0.00000000E+00  0.00000000E+00
  0.00000000E+00  0.00000000E+00  0.00000000E+00
  0.00000000E+00  0.00000000E+00  0.00000000E+00
  0.00000000E+00  0.00000000E+00  0.00000000E+00
  0.00000000E+00  0.00000000E+00  0.00000000E+00
  0.00000000E+00  0.00000000E+00  0.00000000E+00
  0.00000000E+00  0.00000000E+00  0.00000000E+00
  0.00000000E+00  0.00000000E+00  0.00000000E+00
  0.00000000E+00  0.00000000E+00  0.00000000E+00
  0.00000000E+00  0.00000000E+00  0.00000000E+00
  0.00000000E+00  0.00000000E+00  0.00000000E+00
  0.00000000E+00  0.00000000E+00  0.00000000E+00
  0.00000000E+00  0.00000000E+00  0.00000000E+00
  0.00000000E+00  0.00000000E+00  0.00000000E+00
  0.00000000E+00  0.00000000E+00  0.00000000E+00
  0.00000000E+00  0.00000000E+00  0.00000000E+00
  0.00000000E+00  0.00000000E+00  0.00000000E+00
  0.00000000E+00  0.00000000E+00  0.00000000E+00
  0.00000000E+00  0.00000000E+00  0.00000000E+00
  0.00000000E+00  0.00000000E+00  0.00000000E+00
  0.00000000E+00  0.00000000E+00  0.00000000E+00
  0.00000000E+00  0.00000000E+00  0.00000000E+00
  0.00000000E+00  0.00000000E+00  0.00000000E+00
  0.00000000E+00  0.00000000E+00  0.00000000E+00
  0.00000000E+00  0.00000000E+00  0.00000000E+00
  0.00000000E+00  0.00000000E+00  0.00000000E+00
  0.00000000E+00  0.00000000E+00  0.00000000E+00
  0.00000000E+00  0.00000000E+00  0.00000000E+00
  0.00000000E+00  0.00000000E+00  0.00000000E+00
  0.00000000E+00  0.00000000E+00  0.00000000E+00
  0.00000000E+00  0.00000000E+00  0.00000000E+00
  0.00000000E+00  0.00000000E+00  0.00000000E+00
  0.00000000E+00  0.00000000E+00  0.00000000E+00
  0.00000000E+00  0.00000000E+00  0.00000000E+00
  0.00000000E+00  0.00000000E+00  0.00000000E+00
  0.00000000E+00  0.00000000E+00  0.00000000E+00
  0.00000000E+00  0.00000000E+00  0.00000000E+00
  0.00000000E+00  0.00000000E+00  0.00000000E+00
  0.00000000E+00  0.00000000E+00  0.00000000E+00
  0.00000000E+00  0.00000000E+00  0.00000000E+00
